NAME example_model
OBJSENSE MAX
ROWS
 N  OBJ
 L  constraint1
COLUMNS
    x         OBJ       2
    x         constraint1  1
    y         OBJ       3
    y         constraint1  5
RHS
    RHS1      constraint1  10
BOUNDS
ENDATA
